examples/bitops0.cnf
p cnf 72 173
-15 2 0
-15 1 0
15 -2 -1 0
-16 -2 0
-16 -1 0
16 2 1 0
-17 -16 0
-17 -15 0
17 16 15 0
-18 4 0
-18 3 0
18 -4 -3 0
-19 -4 0
-19 -3 0
19 4 3 0
-20 -19 0
-20 -18 0
20 19 18 0
-21 20 0
-21 17 0
21 -20 -17 0
-22 5 0
-22 1 0
22 -5 -1 0
-23 -5 0
-23 -1 0
23 5 1 0
-24 -23 0
-24 -22 0
24 23 22 0
-25 24 0
-25 21 0
25 -24 -21 0
-26 8 0
-26 7 0
26 -8 -7 0
-27 -8 0
-27 -7 0
27 8 7 0
-28 -27 0
-28 -26 0
28 27 26 0
-29 10 0
-29 9 0
29 -10 -9 0
-30 -10 0
-30 -9 0
30 10 9 0
-31 -30 0
-31 -29 0
31 30 29 0
-32 31 0
-32 28 0
32 -31 -28 0
-33 32 0
-33 6 0
33 -32 -6 0
-34 33 0
-34 25 0
34 -33 -25 0
-35 -5 0
-35 -4 0
35 5 4 0
-36 35 0
-36 -7 0
36 -35 7 0
-37 36 0
-37 -9 0
37 -36 9 0
-38 3 0
-38 -2 0
38 -3 2 0
-39 38 0
-39 1 0
39 -38 -1 0
-40 10 0
-40 8 0
40 -10 -8 0
-41 40 0
-41 6 0
41 -40 -6 0
-42 41 0
-42 39 0
42 -41 -39 0
-43 -42 0
-43 37 0
43 42 -37 0
-44 5 0
-44 4 0
44 -5 -4 0
-45 44 0
-45 7 0
45 -44 -7 0
-46 45 0
-46 9 0
46 -45 -9 0
-47 -3 0
-47 2 0
47 3 -2 0
-48 47 0
-48 -1 0
48 -47 1 0
-49 -10 0
-49 -8 0
49 10 8 0
-50 49 0
-50 6 0
50 -49 -6 0
-51 50 0
-51 48 0
51 -50 -48 0
-52 -51 0
-52 46 0
52 51 -46 0
-53 52 0
-53 -37 0
53 -52 37 0
-54 -53 0
-54 -43 0
54 53 43 0
-55 -54 0
-55 34 0
55 54 -34 0
-56 -13 0
-56 12 0
56 13 -12 0
-57 13 0
-57 -12 0
57 -13 12 0
-58 -57 0
-58 -56 0
58 57 56 0
-59 -13 0
-59 -12 0
59 13 12 0
-60 -59 0
-60 -14 0
60 59 14 0
-61 59 0
-61 14 0
61 -59 -14 0
-62 -61 0
-62 -60 0
62 61 60 0
-63 59 0
-63 -14 0
63 -59 14 0
-64 -63 0
-64 11 0
64 63 -11 0
-65 63 0
-65 -11 0
65 -63 11 0
-66 -65 0
-66 -64 0
66 65 64 0
-67 -66 0
-67 -62 0
67 66 62 0
-68 67 0
-68 -58 0
68 -67 58 0
-69 68 0
-69 12 0
69 -68 -12 0
-70 69 0
-70 -11 0
70 -69 11 0
-71 -70 0
-71 -55 0
71 70 55 0
72 0
-71 0
