examples/bitops0.gcnf
c Generated by circ2gcnf from bitops0.aig
p gcnf 71 172 57
{1} -15 2 0
{1} -15 1 0
{1} 15 -2 -1 0
{2} -16 -2 0
{2} -16 -1 0
{2} 16 2 1 0
{3} -17 -16 0
{3} -17 -15 0
{3} 17 16 15 0
{4} -18 4 0
{4} -18 3 0
{4} 18 -4 -3 0
{5} -19 -4 0
{5} -19 -3 0
{5} 19 4 3 0
{6} -20 -19 0
{6} -20 -18 0
{6} 20 19 18 0
{7} -21 20 0
{7} -21 17 0
{7} 21 -20 -17 0
{8} -22 5 0
{8} -22 1 0
{8} 22 -5 -1 0
{9} -23 -5 0
{9} -23 -1 0
{9} 23 5 1 0
{10} -24 -23 0
{10} -24 -22 0
{10} 24 23 22 0
{11} -25 24 0
{11} -25 21 0
{11} 25 -24 -21 0
{12} -26 8 0
{12} -26 7 0
{12} 26 -8 -7 0
{13} -27 -8 0
{13} -27 -7 0
{13} 27 8 7 0
{14} -28 -27 0
{14} -28 -26 0
{14} 28 27 26 0
{15} -29 10 0
{15} -29 9 0
{15} 29 -10 -9 0
{16} -30 -10 0
{16} -30 -9 0
{16} 30 10 9 0
{17} -31 -30 0
{17} -31 -29 0
{17} 31 30 29 0
{18} -32 31 0
{18} -32 28 0
{18} 32 -31 -28 0
{19} -33 32 0
{19} -33 6 0
{19} 33 -32 -6 0
{20} -34 33 0
{20} -34 25 0
{20} 34 -33 -25 0
{21} -35 -5 0
{21} -35 -4 0
{21} 35 5 4 0
{22} -36 35 0
{22} -36 -7 0
{22} 36 -35 7 0
{23} -37 36 0
{23} -37 -9 0
{23} 37 -36 9 0
{24} -38 3 0
{24} -38 -2 0
{24} 38 -3 2 0
{25} -39 38 0
{25} -39 1 0
{25} 39 -38 -1 0
{26} -40 10 0
{26} -40 8 0
{26} 40 -10 -8 0
{27} -41 40 0
{27} -41 6 0
{27} 41 -40 -6 0
{28} -42 41 0
{28} -42 39 0
{28} 42 -41 -39 0
{29} -43 -42 0
{29} -43 37 0
{29} 43 42 -37 0
{30} -44 5 0
{30} -44 4 0
{30} 44 -5 -4 0
{31} -45 44 0
{31} -45 7 0
{31} 45 -44 -7 0
{32} -46 45 0
{32} -46 9 0
{32} 46 -45 -9 0
{33} -47 -3 0
{33} -47 2 0
{33} 47 3 -2 0
{34} -48 47 0
{34} -48 -1 0
{34} 48 -47 1 0
{35} -49 -10 0
{35} -49 -8 0
{35} 49 10 8 0
{36} -50 49 0
{36} -50 6 0
{36} 50 -49 -6 0
{37} -51 50 0
{37} -51 48 0
{37} 51 -50 -48 0
{38} -52 -51 0
{38} -52 46 0
{38} 52 51 -46 0
{39} -53 52 0
{39} -53 -37 0
{39} 53 -52 37 0
{40} -54 -53 0
{40} -54 -43 0
{40} 54 53 43 0
{41} -55 -54 0
{41} -55 34 0
{41} 55 54 -34 0
{42} -56 -13 0
{42} -56 12 0
{42} 56 13 -12 0
{43} -57 13 0
{43} -57 -12 0
{43} 57 -13 12 0
{44} -58 -57 0
{44} -58 -56 0
{44} 58 57 56 0
{45} -59 -13 0
{45} -59 -12 0
{45} 59 13 12 0
{46} -60 -59 0
{46} -60 -14 0
{46} 60 59 14 0
{47} -61 59 0
{47} -61 14 0
{47} 61 -59 -14 0
{48} -62 -61 0
{48} -62 -60 0
{48} 62 61 60 0
{49} -63 59 0
{49} -63 -14 0
{49} 63 -59 14 0
{50} -64 -63 0
{50} -64 11 0
{50} 64 63 -11 0
{51} -65 63 0
{51} -65 -11 0
{51} 65 -63 11 0
{52} -66 -65 0
{52} -66 -64 0
{52} 66 65 64 0
{53} -67 -66 0
{53} -67 -62 0
{53} 67 66 62 0
{54} -68 67 0
{54} -68 -58 0
{54} 68 -67 58 0
{55} -69 68 0
{55} -69 12 0
{55} 69 -68 -12 0
{56} -70 69 0
{56} -70 -11 0
{56} 70 -69 11 0
{57} -71 -70 0
{57} -71 -55 0
{57} 71 70 55 0
{0} -71 0
